language ESSENCE' 1.0

letting jobs = 102
letting horizon = 796
letting resourcesRenew = 2
letting resourcesNonrenew = 2
letting resourceLimits = [72, 70, 471, 512]
letting successors = [[2, 3, 4, 5, 6, 7, 8, 9, 10, 11, 12, 13, 14, 15, 17, 18, 19, 21, 24, 25, 26, 27, 28, 29, 30, 32, 33, 46], [98, 71, 70, 68, 63, 61, 56, 47, 43, 42, 39, 36, 31, 16], [72, 71, 68, 63, 58, 51, 47, 43, 42, 36, 23, 22], [101, 100, 99, 97, 62, 60, 59, 55, 54, 51, 49, 48, 44, 39, 38, 37], [101, 100, 95, 92, 71, 66, 61, 60, 56, 53, 43, 42, 40, 39, 35], [98, 71, 70, 68, 63, 58, 52, 44, 43, 42, 36, 22], [101, 68, 67, 63, 61, 55, 44, 43, 42, 37, 20], [100, 95, 69, 61, 44, 41, 35, 31, 20], [99, 97, 93, 92, 91, 87, 80, 72, 71, 70, 68, 67, 66, 64, 62, 60, 59, 58, 55, 45, 44, 38], [98, 94, 93, 90, 78, 76, 72, 68, 63, 60, 54, 49, 22], [98, 95, 92, 90, 89, 87, 72, 69, 67, 66, 61, 59, 58, 56, 54, 51, 43, 42], [101, 100, 96, 95, 94, 91, 84, 70, 69, 68, 66, 60, 58, 56, 54, 35], [100, 99, 98, 97, 95, 94, 92, 91, 89, 88, 87, 79, 70, 68, 67, 66, 58, 54, 50, 43], [99, 98, 96, 95, 93, 92, 90, 84, 70, 67, 66, 64, 62, 61, 58, 56, 55, 54, 44], [100, 92, 85, 83, 82, 81, 71, 68, 65, 61, 55, 38, 34], [101, 97, 96, 95, 92, 90, 87, 78, 72, 67, 66, 64, 60, 58, 55, 54, 44], [98, 96, 92, 87, 75, 69, 68, 67, 66, 61, 43, 42], [100, 98, 97, 96, 94, 92, 88, 87, 84, 82, 77, 67, 66, 64, 59, 58, 55, 54], [100, 98, 97, 92, 90, 89, 88, 87, 85, 84, 83, 82, 79, 78, 77, 76, 67, 66, 65, 61, 58, 56], [99, 98, 94, 93, 92, 91, 88, 87, 86, 84, 79, 78, 73, 64, 62, 60, 59, 58, 54], [101, 94, 91, 90, 87, 86, 84, 83, 78, 69, 66, 65, 63, 59, 58, 55], [100, 99, 97, 96, 95, 92, 88, 87, 85, 84, 82, 81, 79, 75, 73, 67, 64, 62, 61], [100, 99, 98, 94, 93, 90, 89, 87, 84, 83, 79, 78, 73, 64, 61, 60, 59], [91, 90, 87, 83, 79, 78, 67, 66, 64, 58, 43], [100, 98, 95, 93, 90, 88, 86, 82, 81, 77, 76, 75, 66, 64, 54], [101, 97, 95, 92, 90, 89, 85, 83, 81, 80, 78, 76, 73, 64, 62, 60], [97, 93, 88, 87, 86, 84, 80, 78, 73, 65, 62, 59, 55], [93, 89, 85, 84, 80, 78, 64, 60, 58, 44], [99, 95, 94, 91, 89, 87, 85, 84, 83, 79, 68, 67, 66, 65, 64], [94, 92, 90, 87, 85, 83, 81, 76, 66, 65, 61, 60], [97, 96, 94, 85, 84, 83, 82, 81, 80, 78, 77, 73, 55], [97, 96, 95, 93, 90, 85, 80, 79, 76, 73, 70, 60, 57], [100, 99, 96, 95, 93, 87, 84, 81, 78, 77, 65, 55], [99, 96, 95, 87, 86, 84, 80, 79, 78, 77, 76, 75, 73, 64], [98, 97, 90, 89, 88, 85, 81, 79, 67, 65, 59], [100, 82, 77, 66, 64, 59, 54], [95, 93, 91, 90, 88, 85, 84, 83, 82, 79, 78, 76, 75, 73], [98, 96, 95, 94, 89, 79, 78, 76, 75, 74, 73, 69], [96, 91, 88, 87, 84, 82, 80, 78, 74, 73, 58], [99, 96, 88, 87, 79, 77, 76, 74, 68, 58], [93, 88, 86, 84, 83, 81, 78, 75, 74, 73], [97, 94, 88, 83, 79, 78, 73, 65, 64], [93, 84, 82, 81, 80, 77, 76, 74, 73], [88, 86, 82, 81, 77, 76, 75, 74, 73], [96, 88, 85, 83, 82, 78, 77, 74, 73], [94, 92, 90, 87, 80, 78, 77, 76], [85, 83, 77, 76, 75, 74, 67], [92, 80, 78, 76, 73, 64], [89, 74, 66, 58], [84, 78, 73, 65, 64], [83, 77, 76, 75, 73], [100, 94, 87, 79, 73], [93, 89, 84, 74, 73], [85, 83, 80, 65], [89, 79, 76, 75], [81, 75, 73], [92, 82, 75], [81, 75], [76, 75], [82, 75], [91, 80], [77, 74], [99, 73], [74], [74], [73], [86], [73], [77], [78], [90], [79], [102], [102], [102], [102], [102], [102], [102], [102], [102], [102], [102], [102], [102], [102], [102], [102], [102], [102], [102], [102], [102], [102], [102], [102], [102], [102], [102], [102], [102], []]
letting durations = [[0], [5, 9, 10], [6, 7, 7], [2, 6, 10], [1, 6, 7], [1, 2, 9], [2, 3, 4], [1, 6, 10], [1, 3, 5], [2, 3, 4], [5, 9, 10], [2, 3, 6], [3, 4, 5], [4, 5, 5], [1, 2, 6], [1, 2, 4], [1, 5, 9], [2, 5, 6], [2, 2, 3], [8, 8, 9], [5, 6, 9], [2, 2, 5], [3, 6, 7], [4, 6, 8], [4, 7, 8], [5, 7, 9], [4, 9, 10], [1, 2, 10], [4, 6, 9], [1, 3, 9], [2, 6, 8], [4, 7, 10], [1, 9, 10], [2, 4, 5], [5, 5, 6], [4, 5, 10], [1, 5, 6], [1, 4, 5], [1, 5, 8], [3, 10, 10], [8, 9, 10], [1, 5, 8], [2, 9, 10], [6, 7, 7], [1, 8, 10], [5, 9, 10], [2, 4, 8], [4, 6, 10], [2, 6, 10], [1, 2, 10], [5, 7, 10], [5, 6, 6], [6, 8, 10], [2, 2, 4], [3, 5, 10], [1, 2, 10], [1, 2, 10], [2, 5, 8], [2, 5, 6], [1, 7, 10], [2, 3, 10], [1, 1, 2], [4, 5, 9], [1, 6, 8], [2, 5, 6], [4, 8, 9], [1, 6, 9], [1, 9, 10], [6, 7, 10], [4, 5, 10], [1, 4, 5], [5, 7, 7], [1, 8, 8], [1, 9, 10], [2, 5, 7], [1, 3, 9], [5, 9, 9], [4, 6, 10], [4, 6, 7], [4, 5, 9], [2, 8, 10], [1, 2, 9], [2, 4, 4], [1, 5, 7], [1, 6, 7], [2, 3, 10], [3, 4, 6], [1, 5, 6], [4, 7, 10], [2, 8, 9], [2, 8, 10], [1, 3, 10], [5, 5, 9], [5, 7, 10], [3, 4, 5], [1, 4, 10], [2, 4, 7], [1, 9, 10], [1, 2, 3], [1, 3, 4], [2, 4, 8], [0]]
letting resourceUsage = [[[0, 0, 0, 0]], [[0, 7, 7, 4], [5, 0, 6, 4], [0, 7, 6, 3]], [[9, 0, 8, 8], [0, 6, 8, 8], [3, 0, 6, 8]], [[0, 5, 9, 6], [3, 0, 7, 4], [0, 4, 5, 2]], [[6, 0, 5, 4], [0, 4, 4, 3], [0, 4, 4, 2]], [[0, 9, 9, 1], [0, 9, 6, 1], [3, 0, 2, 1]], [[0, 2, 8, 6], [0, 2, 8, 5], [0, 2, 7, 5]], [[0, 9, 10, 7], [8, 0, 8, 6], [8, 0, 6, 6]], [[0, 7, 5, 6], [0, 6, 5, 5], [0, 6, 3, 3]], [[9, 0, 5, 8], [6, 0, 4, 8], [0, 8, 2, 8]], [[0, 8, 6, 7], [0, 6, 5, 6], [0, 6, 4, 5]], [[7, 0, 5, 7], [5, 0, 3, 6], [3, 0, 3, 4]], [[0, 2, 8, 6], [7, 0, 6, 5], [0, 1, 5, 2]], [[0, 4, 8, 8], [5, 0, 8, 6], [0, 2, 7, 6]], [[7, 0, 6, 7], [0, 4, 5, 7], [0, 2, 5, 7]], [[0, 5, 9, 6], [0, 4, 9, 3], [0, 3, 9, 2]], [[8, 0, 4, 7], [0, 4, 3, 7], [0, 4, 2, 7]], [[8, 0, 4, 7], [0, 5, 3, 4], [5, 0, 3, 3]], [[7, 0, 6, 7], [0, 1, 4, 5], [5, 0, 3, 3]], [[0, 6, 4, 7], [8, 0, 4, 5], [6, 0, 4, 4]], [[0, 3, 5, 8], [0, 2, 3, 8], [0, 2, 2, 7]], [[0, 2, 6, 7], [7, 0, 3, 5], [0, 2, 2, 5]], [[3, 0, 6, 9], [0, 2, 4, 10], [0, 2, 4, 9]], [[5, 0, 6, 4], [5, 0, 2, 3], [0, 1, 1, 2]], [[0, 7, 6, 6], [3, 0, 2, 6], [0, 6, 1, 6]], [[0, 3, 6, 7], [6, 0, 6, 5], [0, 2, 5, 2]], [[0, 6, 8, 6], [0, 6, 7, 6], [0, 6, 5, 6]], [[0, 1, 5, 6], [0, 1, 5, 5], [3, 0, 5, 5]], [[3, 0, 10, 7], [3, 0, 8, 6], [0, 2, 5, 5]], [[5, 0, 7, 9], [5, 0, 6, 9], [0, 8, 4, 9]], [[0, 8, 8, 9], [0, 6, 7, 8], [0, 6, 7, 7]], [[9, 0, 2, 7], [9, 0, 2, 6], [8, 0, 2, 4]], [[0, 9, 7, 8], [2, 0, 3, 7], [1, 0, 2, 7]], [[6, 0, 1, 7], [0, 8, 1, 6], [0, 8, 1, 5]], [[6, 0, 5, 9], [0, 5, 4, 8], [0, 4, 3, 8]], [[10, 0, 8, 9], [6, 0, 7, 8], [3, 0, 7, 8]], [[0, 5, 8, 1], [6, 0, 5, 1], [4, 0, 3, 1]], [[0, 7, 5, 2], [0, 6, 3, 1], [8, 0, 2, 1]], [[9, 0, 10, 5], [0, 5, 8, 5], [0, 2, 8, 5]], [[0, 3, 5, 4], [6, 0, 3, 3], [0, 2, 2, 2]], [[1, 0, 6, 3], [0, 8, 6, 2], [0, 6, 4, 2]], [[0, 3, 8, 3], [4, 0, 7, 2], [3, 0, 7, 2]], [[0, 7, 10, 8], [6, 0, 10, 6], [0, 5, 10, 5]], [[2, 0, 3, 10], [0, 10, 3, 6], [1, 0, 3, 4]], [[0, 7, 2, 8], [0, 6, 1, 7], [0, 5, 1, 5]], [[0, 5, 1, 5], [6, 0, 1, 3], [5, 0, 1, 3]], [[9, 0, 7, 10], [7, 0, 6, 9], [0, 7, 6, 9]], [[6, 0, 5, 6], [0, 4, 3, 6], [5, 0, 2, 6]], [[5, 0, 6, 6], [0, 7, 6, 4], [0, 7, 6, 3]], [[7, 0, 7, 6], [6, 0, 7, 5], [0, 2, 7, 5]], [[5, 0, 4, 10], [3, 0, 4, 10], [0, 3, 4, 10]], [[0, 7, 9, 9], [4, 0, 7, 6], [0, 3, 7, 5]], [[0, 4, 5, 7], [0, 2, 5, 6], [4, 0, 4, 5]], [[0, 7, 8, 4], [2, 0, 7, 3], [0, 5, 2, 3]], [[0, 7, 10, 9], [0, 5, 8, 7], [5, 0, 5, 3]], [[0, 6, 4, 7], [5, 0, 4, 5], [3, 0, 4, 4]], [[0, 9, 2, 7], [0, 7, 1, 7], [5, 0, 1, 4]], [[0, 8, 7, 9], [3, 0, 5, 4], [0, 3, 4, 4]], [[0, 8, 8, 5], [0, 7, 7, 4], [0, 6, 4, 4]], [[0, 6, 9, 2], [5, 0, 8, 2], [0, 5, 8, 1]], [[7, 0, 5, 3], [5, 0, 5, 3], [5, 0, 2, 3]], [[4, 0, 6, 10], [0, 8, 3, 7], [0, 5, 2, 7]], [[0, 9, 6, 6], [3, 0, 6, 5], [3, 0, 5, 3]], [[4, 0, 8, 8], [0, 3, 6, 7], [3, 0, 4, 6]], [[0, 9, 5, 3], [2, 0, 4, 3], [2, 0, 4, 2]], [[0, 9, 9, 8], [3, 0, 7, 7], [2, 0, 6, 5]], [[0, 7, 4, 9], [4, 0, 4, 6], [0, 6, 4, 4]], [[0, 3, 6, 9], [0, 3, 6, 6], [0, 3, 6, 5]], [[5, 0, 6, 5], [0, 9, 5, 4], [1, 0, 4, 1]], [[4, 0, 7, 2], [0, 8, 6, 2], [1, 0, 6, 1]], [[10, 0, 7, 9], [8, 0, 6, 9], [8, 0, 5, 7]], [[0, 7, 8, 6], [0, 7, 8, 5], [2, 0, 8, 2]], [[0, 5, 5, 7], [0, 4, 5, 5], [1, 0, 5, 4]], [[9, 0, 4, 6], [0, 6, 3, 6], [0, 6, 3, 5]], [[0, 8, 2, 8], [0, 5, 1, 4], [0, 3, 1, 3]], [[3, 0, 2, 6], [3, 0, 2, 4], [0, 2, 2, 3]], [[0, 4, 5, 5], [0, 3, 5, 5], [4, 0, 5, 5]], [[0, 7, 9, 7], [6, 0, 6, 6], [0, 7, 4, 4]], [[0, 5, 8, 7], [6, 0, 7, 6], [0, 4, 7, 3]], [[0, 8, 3, 5], [0, 5, 3, 5], [0, 4, 3, 5]], [[4, 0, 9, 9], [0, 6, 6, 8], [4, 0, 6, 7]], [[6, 0, 7, 8], [3, 0, 7, 7], [2, 0, 7, 7]], [[0, 8, 8, 7], [3, 0, 5, 5], [0, 6, 2, 4]], [[6, 0, 9, 3], [0, 9, 8, 3], [0, 8, 8, 2]], [[8, 0, 5, 8], [5, 0, 4, 7], [0, 3, 4, 6]], [[7, 0, 2, 5], [0, 8, 1, 5], [0, 8, 1, 4]], [[0, 8, 3, 7], [0, 8, 2, 6], [0, 8, 1, 1]], [[3, 0, 3, 8], [2, 0, 3, 8], [2, 0, 3, 7]], [[0, 3, 4, 9], [3, 0, 4, 7], [3, 0, 4, 6]], [[0, 8, 8, 6], [0, 7, 8, 5], [2, 0, 8, 5]], [[0, 3, 4, 5], [5, 0, 3, 4], [4, 0, 2, 3]], [[0, 4, 4, 6], [0, 4, 4, 5], [0, 3, 4, 5]], [[9, 0, 8, 9], [0, 3, 6, 8], [0, 3, 5, 8]], [[10, 0, 8, 4], [7, 0, 8, 4], [0, 9, 8, 4]], [[0, 9, 9, 6], [0, 8, 8, 3], [0, 7, 7, 3]], [[0, 9, 7, 10], [0, 9, 6, 9], [9, 0, 5, 8]], [[6, 0, 5, 7], [4, 0, 3, 3], [4, 0, 1, 2]], [[0, 6, 7, 8], [4, 0, 5, 7], [0, 5, 2, 7]], [[3, 0, 6, 7], [2, 0, 5, 6], [2, 0, 3, 6]], [[5, 0, 8, 8], [0, 7, 8, 8], [0, 2, 8, 7]], [[10, 0, 4, 9], [9, 0, 2, 8], [0, 3, 2, 8]], [[0, 0, 0, 0]]]
